p cnf 44 100
a 2 3 4 8 13 0
e 1 5 6 7 9 10 11 12 14 15 16 17 18 19 20 21 22 23 24 25 26 27 28 29 30 31 32 33 34 35 36 37 38 39 40 41 42 43 44 0
1 0
3 -5 0
4 -5 0
-3 -4 5 0
3 -6 0
-4 -6 0
-3 4 6 0
3 7 0
-5 7 0
-6 7 0
-3 5 6 -7 0
-8 9 0
8 9 0
2 -10 0
7 -10 0
9 -10 0
-2 -7 -9 10 0
-2 -11 0
7 -11 0
2 -7 11 0
-10 12 0
-11 12 0
10 11 -12 0
-13 14 0
13 14 0
12 -15 0
14 -15 0
-12 -14 15 0
-8 16 0
8 16 0
2 -17 0
16 -17 0
-2 -16 17 0
-17 18 0
2 18 0
17 -2 -18 0
-8 19 0
8 19 0
2 -20 0
19 -20 0
-2 -19 20 0
-20 21 0
2 21 0
20 -2 -21 0
23 -25 0
24 -25 0
-23 -24 25 0
23 -26 0
-24 -26 0
-23 24 26 0
23 27 0
-25 27 0
-26 27 0
-23 25 26 -27 0
-28 29 0
28 29 0
22 -30 0
27 -30 0
29 -30 0
-22 -27 -29 30 0
-22 -31 0
27 -31 0
22 -27 31 0
-30 32 0
-31 32 0
30 31 -32 0
-33 34 0
33 34 0
32 -35 0
34 -35 0
-32 -34 35 0
-28 36 0
28 36 0
22 -37 0
36 -37 0
-22 -36 37 0
-37 38 0
22 38 0
37 -22 -38 0
-28 39 0
28 39 0
22 -40 0
39 -40 0
-22 -39 40 0
-40 41 0
22 41 0
40 -22 -41 0
-38 -18 -42 0
38 18 -42 0
-38 18 42 0
38 -18 42 0
-41 -21 -43 0
41 21 -43 0
-41 21 43 0
41 -21 43 0
-42 -44 0
-43 -44 0
35 -44 0
42 43 -35 44 0
-15 44 0
